units real
atom_style full
timestep 2

dimension 3
boundary p p p

bond_style hybrid harmonic
angle_style hybrid harmonic
special_bonds lj 0.0 0.0 0.5 coul 0.0 0.0 0.5

read_data water.lmp

pair_style lj/cut/coul/long 15.0 15.0
pair_modify tail yes
kspace_style pppm 1e-8

pair_coeff 1 1   0.1554001   3.1655700
pair_coeff 2 2   0.0000000   0.0000000

pair_modify mix geometric

fix settle all shake 0.000001 100 0 t 1 2 a 1 2 3 4 5 6 7 8 9 10 &
 11 12 13 14 15 16 17 18 19 20 &
 21 22 23 24 25 26 27 28 29 30 &
 31 32 33 34 35 36 37 38 39 40 &
 41 42 43 44 45 46 47 48 49 50 &
 51 52 53 54 55 56 57 58 59 60 &
 61 62 63 64 65 66 67 68 69 70 &
 71 72 73 74 75 76 77 78 79 80 &
 81 82 83 84 85 86 87 88 89 90 &
 91 92 93 94 95 96 97 98 99 100 &

fix 1 all nvt temp 1.0 300.0 100.0

run 100

fix 1 all nvt temp 300.0 300.0 100.0

run 300

thermo_style multi
thermo 1000
dump myDump all custom 100000 dump.atom x y z vx vy vz

run 200000
